Version identifier: 20.1.0.0 | 2020-11-10 | 9bedb6d68
Tried aggregator 3 times.
MIP Presolve eliminated 1264 rows and 610 columns.
MIP Presolve modified 3034 coefficients.
Aggregator did 118 substitutions.
Reduced MIP has 1687 rows, 1345 columns, and 5472 nonzeros.
Reduced MIP has 220 binaries, 1125 generals, 0 SOSs, and 0 indicators.
Presolve time = 0.02 sec. (8.19 ticks)
Found incumbent of value 1384.000000 after 0.03 sec. (14.85 ticks)
Probing fixed 40 vars, tightened 470 bounds.
Probing time = 0.00 sec. (1.21 ticks)
Tried aggregator 2 times.
MIP Presolve eliminated 706 rows and 142 columns.
MIP Presolve modified 205 coefficients.
Aggregator did 60 substitutions.
Reduced MIP has 921 rows, 1143 columns, and 2886 nonzeros.
Reduced MIP has 412 binaries, 731 generals, 0 SOSs, and 0 indicators.
Presolve time = 0.01 sec. (4.14 ticks)
Probing time = 0.00 sec. (0.31 ticks)
Tried aggregator 1 time.
Detecting symmetries...
MIP Presolve modified 349 coefficients.
Reduced MIP has 921 rows, 1143 columns, and 2886 nonzeros.
Reduced MIP has 416 binaries, 727 generals, 0 SOSs, and 0 indicators.
Presolve time = 0.00 sec. (2.28 ticks)
Probing time = 0.00 sec. (0.28 ticks)
Clique table members: 163.
MIP emphasis: balance optimality and feasibility.
MIP search method: dynamic search.
Parallel mode: deterministic, using up to 24 threads.
Root relaxation solution time = 0.01 sec. (3.78 ticks)

        Nodes                                         Cuts/
   Node  Left     Objective  IInf  Best Integer    Best Bound    ItCnt     Gap

*     0+    0                         1384.0000        0.0000           100.00%
*     0+    0                           17.0000        0.0000           100.00%
      0     0        0.0000    24       17.0000        0.0000      352  100.00%
*     0+    0                           10.0000        0.0000           100.00%
      0     0        0.0588   325       10.0000     Cuts: 111      564   99.41%
      0     0        1.0000   273       10.0000     Cuts: 124      779   90.00%
      0     0        1.0000   293       10.0000      Cuts: 87      888   90.00%
*     0+    0                            7.0000        1.0000            85.71%
      0     0        cutoff              7.0000        7.0000      950    0.00%
Elapsed time = 0.99 sec. (107.24 ticks, tree = 0.01 MB, solutions = 4)

Clique cuts applied:  19
Implied bound cuts applied:  24
Flow cuts applied:  5
Mixed integer rounding cuts applied:  23
Zero-half cuts applied:  123
Lift and project cuts applied:  2
Gomory fractional cuts applied:  8

Root node processing (before b&c):
  Real time             =    0.99 sec. (107.37 ticks)
Parallel b&c, 24 threads:
  Real time             =    0.00 sec. (0.00 ticks)
  Sync time (average)   =    0.00 sec.
  Wait time (average)   =    0.00 sec.
                          ------------
Total (root+branch&cut) =    0.99 sec. (107.37 ticks)

Solution status = Optimal
Solution LB = 7
Solution UB = 7
Runtime = 0.998227 seconds
	Command being timed: "/home/min/git_repos/CS598MEBProject/CNT-ILP/build/cnt -s 2 ./output/k8_n20/simC_c1_k8_n20_u1_s1_del04.input-right.cnp"
	User time (seconds): 16.07
	System time (seconds): 0.07
	Percent of CPU this job got: 1586%
	Elapsed (wall clock) time (h:mm:ss or m:ss): 0:01.01
	Average shared text size (kbytes): 0
	Average unshared data size (kbytes): 0
	Average stack size (kbytes): 0
	Average total size (kbytes): 0
	Maximum resident set size (kbytes): 75936
	Average resident set size (kbytes): 0
	Major (requiring I/O) page faults: 0
	Minor (reclaiming a frame) page faults: 15840
	Voluntary context switches: 3003
	Involuntary context switches: 1996
	Swaps: 0
	File system inputs: 0
	File system outputs: 16
	Socket messages sent: 0
	Socket messages received: 0
	Signals delivered: 0
	Page size (bytes): 4096
	Exit status: 0
